n=10; m= 10; 


15	64	64	48	9	91	27	34	42	3 
28	4	43	93	1	81	77	69	52	28
77	36	57	15	81	82	98	97	2	35
1	59	95	49	90	78	3	69	99	41
86	41	41	11	43	67	80	16	37	94
11	54	27	30	9	15	88	55	50	57
28	77	42	53	46	49	15	43	65	41
84	70	27	37	59	42	57	6	11	34
73	28	99	13	59	47	8	92	87	62
86	41	41	11	43	67	80	16	37	94







